44 96
99 62
1 54
67 64
5 42
8 1
50 69
43 24
75 56
19 27
53 52
54 10
48 10
50 28
13 75
66 67
50 20
38 19
79 60
16 88
62 76
0 78
93 86
42 36
33 56
89 19
0 19
6 63
10 58
54 31
94 86
49 28
25 0
34 59
55 44
46 0
94 74
26 44
11 50
62 98
7 76
11 27
72 21
12 54
61 24
65 10
12 61
9 15
0 8
4 10
